column=9;
row=9;
Board=[|2,0,0,0,0,0,6,0,0|0,8,6,7,0,0,0,0,0|3,6,0,1,0,7,0,4,9|7,0,0,0,0,6,4,0,0|0,0,0,0,0,0,7,0,0|0,1,0,0,0,8,9,0,7|0,0,0,0,7,0,2,0,0|8,0,9,0,0,0,1,0,0|9,0,0,3,0,0,0,0,6|];
horizontal=[|0,1,0,0,0,0,1,1|0,0,1,0,1,0,0,0|0,0,1,0,1,0,1,0|0,1,0,1,0,0,1,0|0,1,0,0,1,0,1,0|0,0,1,0,0,1,0,0|1,0,0,1,0,0,0,0|1,0,0,0,1,0,0,1|0,0,0,1,0,0,0,0|];
vertical=[|0,0,1,0,1,0,0,0,0|0,0,0,0,0,0,0,0,0|0,0,1,0,1,1,1,1,0|0,0,0,0,0,0,0,1,0|0,0,0,0,0,0,0,0,0|0,0,0,1,0,1,0,0,0|0,0,0,0,1,0,1,0,0|1,0,0,1,0,0,0,0,0|];
